Optimal - objective value 252.05000000
      0 x0_1                   1         4.99999999999999
      5 x0_6                   1                    0.51
      9 x0_10                  1                    8.48
     20 x1_9                   1                       0
     31 x2_8                   1                       0
     36 x3_0                   1                   32.37
     50 x4_2                   1                       0
     63 x5_3                   1                       0
     83 x6_12                  1                       0
     84 x7_0                   1                     5.6
     96 x8_0                   1                       0
    113 x9_5                   1         -0.399999999999992
    124 x10_4                  1         -0.530000000000001
    139 x11_7                  1                       0
    155 x12_11                 1         0.529999999999993
    156 u1                     6                       0
    157 u2                    14                       0
    158 u3                    21                       0
    159 u4                    10                       0
    160 u5                    17                       0
    161 u6                     4                       0
    162 u7                    23                       0
    163 u8                    18                       0
    164 u9                    12                       0
    165 u10                    4                       0
    166 u11                   19                       0
    167 u12                   10                       0
